
numDies = 20; % numero de dies
m = 3; % num linacs
s = 8; % num sessions per pacient
p = 45; % num pacients
tolerancia = 3; % diferencia maxima diaSesio i separacio
solicitud = 14; % dies maxims fins primera visita

disponible = [|  3,  7,  3,  3,  3, 20,  8, 15,  6, 10, 23, 30, 31, 22, 35, 49, 49, 49, 49, 49
              |  4,  8,  3,  3,  4, 22, 15, 21, 18, 17, 35, 34, 31, 34, 38, 49, 49, 49, 49, 49
              |  6, 11,  3, 10, 14, 26, 17, 32, 21, 20, 36, 44, 34, 39, 42, 49, 49, 49, 49, 49 |]; % capacitat de cada linac

duracio = [| 2, 2, 2, 2, 2, 2, 2, 2
            | 2, 2, 2, 2, 2, 2, 2, 2
            | 2, 2, 2, 2, 2, 2, 2, 2
            | 2, 2, 2, 2, 2, 2, 2, 2
            | 2, 2, 2, 2, 2, 2, 2, 2
            | 2, 2, 2, 2, 2, 2, 2, 2
            | 2, 2, 2, 2, 2, 2, 2, 2
            | 2, 2, 2, 2, 2, 2, 2, 2
            | 2, 2, 2, 2, 2, 2, 2, 2
            | 2, 2, 2, 2, 2, 2, 2, 2
            | 2, 2, 2, 2, 2, 2, 2, 2
            | 2, 2, 2, 2, 2, 2, 2, 2
            | 2, 2, 2, 2, 2, 2, 2, 2
            | 2, 2, 2, 2, 2, 3, 3, 3
            | 2, 2, 2, 2, 2, 3, 3, 3
            | 2, 2, 2, 2, 2, 3, 3, 3
            | 2, 2, 2, 2, 2, 3, 3, 3
            | 2, 2, 2, 2, 2, 3, 3, 3
            | 2, 2, 2, 2, 2, 3, 3, 3
            | 2, 2, 2, 2, 2, 3, 3, 3
            | 2, 2, 2, 2, 2, 3, 3, 3
            | 2, 2, 2, 2, 2, 3, 3, 3
            | 3, 3, 3, 3, 3, 2, 2, 2
            | 3, 3, 3, 3, 3, 2, 2, 2
            | 3, 3, 3, 3, 3, 2, 2, 2
            | 3, 3, 3, 3, 3, 2, 2, 2
            | 3, 3, 3, 3, 3, 2, 2, 2
            | 3, 3, 3, 3, 3, 2, 2, 2
            | 3, 3, 3, 3, 3, 2, 2, 2
            | 3, 3, 3, 3, 3, 2, 2, 2
            | 3, 3, 3, 3, 3, 2, 2, 2
            | 3, 3, 3, 3, 3, 2, 2, 2
            | 3, 3, 3, 3, 3, 2, 2, 2
            | 3, 3, 3, 3, 3, 2, 2, 2
            | 3, 3, 3, 3, 3, 2, 2, 2
            | 3, 3, 3, 3, 3, 3, 3, 3
            | 3, 3, 3, 3, 3, 3, 3, 3
            | 3, 3, 3, 3, 3, 3, 3, 3
            | 3, 3, 3, 3, 3, 3, 3, 3
            | 3, 3, 3, 3, 3, 3, 3, 3
            | 3, 3, 3, 3, 3, 3, 3, 3
            | 3, 3, 3, 3, 3, 3, 3, 3
            | 3, 3, 3, 3, 3, 3, 3, 3
            | 3, 3, 3, 3, 3, 3, 3, 3
            | 3, 3, 3, 3, 3, 3, 3, 3 |]; % duracion de la sesion (2 o 3 instants de temps)(30 o 45 mins)

separacio = [| 3, 1, 3, 1, 1, 2, 2
              | 3, 1, 3, 1, 1, 2, 2
              | 3, 1, 3, 1, 1, 2, 2
              | 3, 1, 3, 1, 1, 2, 2
              | 3, 1, 3, 1, 1, 2, 2
              | 1, 2, 2, 1, 1, 2, 1
              | 1, 2, 2, 1, 1, 2, 1
              | 1, 2, 2, 1, 1, 2, 1
              | 1, 2, 2, 1, 1, 2, 1
              | 1, 2, 2, 1, 1, 2, 1
              | 1, 2, 2, 1, 1, 2, 1
              | 1, 2, 2, 1, 1, 2, 1
              | 1, 2, 2, 1, 1, 2, 1
              | 3, 1, 3, 1, 1, 2, 2
              | 1, 2, 2, 1, 1, 2, 1
              | 1, 2, 2, 1, 1, 2, 1
              | 1, 2, 2, 1, 1, 2, 1
              | 1, 2, 2, 1, 1, 2, 1
              | 1, 2, 2, 1, 1, 2, 1
              | 1, 2, 2, 1, 1, 2, 1
              | 1, 2, 2, 1, 1, 2, 1
              | 1, 2, 2, 1, 1, 2, 1
              | 1, 2, 2, 1, 1, 2, 1
              | 3, 1, 3, 1, 1, 2, 2
              | 3, 1, 3, 1, 1, 2, 2
              | 3, 1, 3, 1, 1, 2, 2
              | 3, 1, 3, 1, 1, 2, 2
              | 3, 1, 3, 1, 1, 2, 2
              | 3, 1, 3, 1, 1, 2, 2
              | 3, 1, 3, 1, 1, 2, 2
              | 3, 1, 3, 1, 1, 2, 2
              | 3, 1, 3, 1, 1, 2, 2
              | 3, 1, 3, 1, 1, 2, 2
              | 3, 1, 3, 1, 1, 2, 2
              | 3, 1, 3, 1, 1, 2, 2
              | 3, 1, 3, 1, 1, 2, 2
              | 3, 1, 3, 1, 1, 2, 2
              | 3, 1, 3, 1, 1, 2, 2
              | 3, 1, 3, 1, 1, 2, 2
              | 3, 1, 3, 1, 1, 2, 2
              | 3, 1, 3, 1, 1, 2, 2
              | 3, 1, 3, 1, 1, 2, 2
              | 3, 1, 3, 1, 1, 2, 2
              | 3, 1, 3, 1, 1, 2, 2
              | 1, 2, 2, 1, 1, 2, 1 |]; % separacio ideal entre sesions 

grup = [1, 2, 2, 2, 2, 3, 3, 3, 3, 3, 3, 3, 3, 4, 5, 5, 5, 5, 5, 5, 5, 5, 5, 6, 6, 6, 6, 6, 6, 7, 7, 7, 8, 8, 8, 8, 8, 8, 9, 9, 9, 9, 9, 9, 10]; % pacients amb mateix grup son identics